20180328 60100.00 24300.00
20171123 60085.75 23551.57
20170427 60120.75 22796.40
20161227 24049.06 9155.97
20161109 22566.34 5010.00
20160718 20377.10 5010.00
20160427 20010.00 5010.00
20151222 6670.00 1670.00
